1111100 AB
342 373 389 405 421 432 453 475 485 496 520 538 551 587 616 646 676 706 736 766 796 826 856 886 916 947 978 1008 1038 1056 1074 1092 1110 1128 1146 1180 1215 1263 1311 1360 1410
1111100 BA
320 350 377 408 425 447 467 478 499 521 531 542 564 582 595 631 660 690 720 750 780 810 840 870 900 932 963 994 1025 1056 1089 1107 1125 1143 1158 1174 1191 1225 1260 1299 1347 1396 6
0000011 AB
347 397 429 461 496 531 566 601 635 670 705 739 774 809 843 878 913 947 982 1018 1054 1090 1126 1162 1212 1262 1312 1362 1412
0000011 BA
344 382 434 470 502 537 572 607 642 676 711 746 780 815 850 884 919 954 988 1023 1059 1095 1131 1167 1203 1253 1297 1347 1397 7
